NAME : local_6
TYPE : ATSP
DIMENSION : 6
EDGE_WEIGHT_TYPE : EXPLICIT
EDGE_WEIGHT_FORMAT : FULL_MATRIX
EDGE_WEIGHT_SECTION
0 10000000 332 253 905 768 
0 0 10000000 10000000 672 882 
0 10000000 0 458 647 517 
0 10000000 458 0 1021 908 
0 672 647 1187 0 250 
0 10000000 10000000 10000000 10000000 0 
EOF